c generated by sgen1
c Command: ./sgen1 -sat -n 20 -s 670 
p cnf 20 48
-1 -2 0
-1 -3 0
-1 -4 0
-1 -5 0
-2 -3 0
-2 -4 0
-2 -5 0
-3 -4 0
-3 -5 0
-4 -5 0
-6 -7 0
-6 -8 0
-6 -9 0
-6 -10 0
-7 -8 0
-7 -9 0
-7 -10 0
-8 -9 0
-8 -10 0
-9 -10 0
-11 -12 0
-11 -13 0
-11 -14 0
-11 -15 0
-12 -13 0
-12 -14 0
-12 -15 0
-13 -14 0
-13 -15 0
-14 -15 0
-16 -17 0
-16 -18 0
-16 -19 0
-16 -20 0
-17 -18 0
-17 -19 0
-17 -20 0
-18 -19 0
-18 -20 0
-19 -20 0
10 2 5 15 20 0
6 4 9 14 19 0
11 3 7 16 12 0
13 17 18 1 8 0
13 2 14 8 18 0
6 4 20 15 9 0
11 5 1 16 7 0
10 17 19 3 12 0
